/* Objective function */
min: 170X1 + 160X2 + 175X3 + 180X4 + 195X5;

/* Constraints */
X1 >= 48;
X1 + X2 >= 79;
X1 + X2 >= 65;
X1 + X2 + X3 >= 87;
X2 + X3 >= 64;
X3 + X4 >= 73;
X3 + X4 >= 82;
X4 >= 43;
X4 + X5 >= 52;
X5 >= 15;

